
;this file is automatically generated: Fri May 11 17:08:53 IST 2018

;declarations generated

(declare-fun S0 () Int)
(declare-fun S1 () Int)
(declare-fun S2 () Int)
(declare-fun S3 () Int)
(declare-fun S4 () Int)
(declare-fun S5 () Int)

;formula(s) generated
(assert (and (>= S0 0) (<= S0 4)))
(assert (and (>= S1 0) (<= S1 4)))
(assert (and (>= S2 0) (<= S2 4)))
(assert (and (>= S3 0) (<= S3 4)))
(assert (and (>= S4 0) (<= S4 4)))
(assert (and (>= S5 0) (<= S5 4)))
(assert (= S0 0))
(assert (and (and (and (and (or (not (= S0 0) ) (not (= S1 0) )) (or (not (= S1 0) ) (not (= S2 0) ))) (or (not (= S2 0) ) (not (= S3 0) ))) (or (not (= S3 0) ) (not (= S4 0) ))) (or (not (= S4 0) ) (not (= S5 0) ))))
(assert (and (and (and (and (or (not (= S0 0) ) (not (= S1 3) )) (or (not (= S1 0) ) (not (= S2 3) ))) (or (not (= S2 0) ) (not (= S3 3) ))) (or (not (= S3 0) ) (not (= S4 3) ))) (or (not (= S4 0) ) (not (= S5 3) ))))
(assert (and (and (and (and (or (not (= S0 0) ) (not (= S1 4) )) (or (not (= S1 0) ) (not (= S2 4) ))) (or (not (= S2 0) ) (not (= S3 4) ))) (or (not (= S3 0) ) (not (= S4 4) ))) (or (not (= S4 0) ) (not (= S5 4) ))))
(assert (and (and (and (and (or (not (= S0 1) ) (not (= S1 0) )) (or (not (= S1 1) ) (not (= S2 0) ))) (or (not (= S2 1) ) (not (= S3 0) ))) (or (not (= S3 1) ) (not (= S4 0) ))) (or (not (= S4 1) ) (not (= S5 0) ))))
(assert (and (and (and (and (or (not (= S0 1) ) (not (= S1 2) )) (or (not (= S1 1) ) (not (= S2 2) ))) (or (not (= S2 1) ) (not (= S3 2) ))) (or (not (= S3 1) ) (not (= S4 2) ))) (or (not (= S4 1) ) (not (= S5 2) ))))
(assert (and (and (and (and (or (not (= S0 1) ) (not (= S1 4) )) (or (not (= S1 1) ) (not (= S2 4) ))) (or (not (= S2 1) ) (not (= S3 4) ))) (or (not (= S3 1) ) (not (= S4 4) ))) (or (not (= S4 1) ) (not (= S5 4) ))))
(assert (and (and (and (and (or (not (= S0 2) ) (not (= S1 0) )) (or (not (= S1 2) ) (not (= S2 0) ))) (or (not (= S2 2) ) (not (= S3 0) ))) (or (not (= S3 2) ) (not (= S4 0) ))) (or (not (= S4 2) ) (not (= S5 0) ))))
(assert (and (and (and (and (or (not (= S0 2) ) (not (= S1 3) )) (or (not (= S1 2) ) (not (= S2 3) ))) (or (not (= S2 2) ) (not (= S3 3) ))) (or (not (= S3 2) ) (not (= S4 3) ))) (or (not (= S4 2) ) (not (= S5 3) ))))
(assert (and (and (and (and (or (not (= S0 2) ) (not (= S1 4) )) (or (not (= S1 2) ) (not (= S2 4) ))) (or (not (= S2 2) ) (not (= S3 4) ))) (or (not (= S3 2) ) (not (= S4 4) ))) (or (not (= S4 2) ) (not (= S5 4) ))))
(assert (and (and (and (and (or (not (= S0 3) ) (not (= S1 0) )) (or (not (= S1 3) ) (not (= S2 0) ))) (or (not (= S2 3) ) (not (= S3 0) ))) (or (not (= S3 3) ) (not (= S4 0) ))) (or (not (= S4 3) ) (not (= S5 0) ))))
(assert (and (and (and (and (or (not (= S0 3) ) (not (= S1 2) )) (or (not (= S1 3) ) (not (= S2 2) ))) (or (not (= S2 3) ) (not (= S3 2) ))) (or (not (= S3 3) ) (not (= S4 2) ))) (or (not (= S4 3) ) (not (= S5 2) ))))
(assert (and (and (and (and (or (not (= S0 3) ) (not (= S1 3) )) (or (not (= S1 3) ) (not (= S2 3) ))) (or (not (= S2 3) ) (not (= S3 3) ))) (or (not (= S3 3) ) (not (= S4 3) ))) (or (not (= S4 3) ) (not (= S5 3) ))))
(assert (and (and (and (and (or (not (= S0 4) ) (not (= S1 0) )) (or (not (= S1 4) ) (not (= S2 0) ))) (or (not (= S2 4) ) (not (= S3 0) ))) (or (not (= S3 4) ) (not (= S4 0) ))) (or (not (= S4 4) ) (not (= S5 0) ))))
(assert (and (and (and (and (or (not (= S0 4) ) (not (= S1 3) )) (or (not (= S1 4) ) (not (= S2 3) ))) (or (not (= S2 4) ) (not (= S3 3) ))) (or (not (= S3 4) ) (not (= S4 3) ))) (or (not (= S4 4) ) (not (= S5 3) ))))
(assert (and (and (and (and (or (not (= S0 4) ) (not (= S1 4) )) (or (not (= S1 4) ) (not (= S2 4) ))) (or (not (= S2 4) ) (not (= S3 4) ))) (or (not (= S3 4) ) (not (= S4 4) ))) (or (not (= S4 4) ) (not (= S5 4) ))))
(assert (= S5 4))

 ;end of formula 
(assert (not (and (and (and (and (and (= S0 0) (= S1 1)) (= S2 1)) (= S3 1)) (= S4 3)) (= S5 4)) ))

(assert (not (and (and (and (and (and (= S0 0) (= S1 2)) (= S2 2)) (= S3 1)) (= S4 3)) (= S5 4)) ))

(assert (not (and (and (and (and (and (= S0 0) (= S1 2)) (= S2 1)) (= S3 1)) (= S4 3)) (= S5 4)) ))

(assert (not (and (and (and (and (and (= S0 0) (= S1 1)) (= S2 3)) (= S3 1)) (= S4 3)) (= S5 4)) ))
